NAME : block_39.666022.tour
COMMENT : Length = 666022
COMMENT : Found by LKH-3 [Keld Helsgaun] Wed Apr 22 15:47:55 2026
TYPE : TOUR
DIMENSION : 190
TOUR_SECTION
155
143
129
114
98
82
67
53
54
68
83
99
115
130
144
156
157
167
166
173
174
180
181
186
187
182
183
188
189
184
185
179
172
162
163
151
137
122
105
121
136
150
149
135
120
104
88
87
103
119
134
148
160
161
171
178
177
170
169
176
175
168
158
159
147
133
118
102
86
71
70
85
101
117
132
146
145
131
116
100
84
69
55
2
190
1
28
17
18
8
3
9
19
30
29
41
42
56
72
57
43
31
20
10
4
5
11
21
32
44
58
73
89
106
90
74
59
45
33
22
12
6
7
13
23
34
46
60
75
91
107
123
108
92
76
61
47
35
24
14
15
25
36
48
62
77
93
109
124
138
139
125
110
94
78
63
49
37
26
16
27
38
50
64
79
95
111
126
140
152
153
141
127
112
96
80
65
51
39
40
52
66
81
97
113
128
142
154
164
165
-1
EOF
